Data path: /scratch/opt/lxu/CFLG/benchmarks/random_A
Instance: r_20_0.4_69.txt
Result path: /scratch/opt/lxu/CFLG/results/random_A
Solver: Gurobi
Time limit: 7200
Formulation: EVFP
Cover: Large
julia --project=. src/main.jl /scratch/opt/lxu/CFLG/benchmarks/random_A r_20_0.4_69.txt /scratch/opt/lxu/CFLG/results/random_A Gurobi 7200 EVFP Large
The latest version of Julia in the `release` channel is 1.11.5+0.x64.linux.gnu. You currently have `1.11.4+0.x64.linux.gnu` installed. Run:

  juliaup update

in your terminal shell to install Julia 1.11.5+0.x64.linux.gnu and update the `release` channel to that version.
/scratch/opt/lxu/CFLG/benchmarks/random_A Gurobi 7200.0 /scratch/opt/lxu/CFLG/results/random_A r_20_0.4_69.txt EVFP Large
/scratch/opt/lxu/CFLG/benchmarks/random_A/r_20_0.4_69.txt

 read graph
data loaded

problem_graph/original graph: node: 20/20 edge: 69/69 dlt: 1.2450892085363634 break_avg_len: 0.6225446042681817 break_max_len: 0.9827397640132096elapsed CPU time: 0.027661 seconds
Set parameter TokenServer to value "solice01.zib.de"
Set parameter Threads to value 1
Set parameter OutputFlag to value 1
Set parameter MIPGap to value 0.0001
Set parameter MIPGapAbs to value 0.999998
Set parameter TimeLimit to value 7199.972339
vertex var

 model loaded

Gurobi Optimizer version 12.0.1 build v12.0.1rc0 (linux64 - "Debian GNU/Linux 12 (bookworm)")

CPU model: Intel(R) Xeon(R) Gold 5222 CPU @ 3.80GHz, instruction set [SSE2|AVX|AVX2|AVX512]
Thread count: 8 physical cores, 16 logical processors, using up to 1 threads

Non-default parameters:
TimeLimit  7199.972339
MIPGapAbs  0.999998
Threads  1

Optimize a model with 7010 rows, 3102 columns and 20391 nonzeros
Model fingerprint: 0x01a2e9c2
Variable types: 89 continuous, 3013 integer (3013 binary)
Coefficient statistics:
  Matrix range     [1e-06, 2e+00]
  Objective range  [1e+00, 1e+00]
  Bounds range     [3e-01, 1e+00]
  RHS range        [3e-01, 1e+01]
Found heuristic solution: objective 12.0000000
Presolve removed 1512 rows and 15 columns
Presolve time: 0.07s
Presolved: 5498 rows, 3087 columns, 18774 nonzeros
Variable types: 89 continuous, 2998 integer (2998 binary)

Root relaxation: objective 9.230769e-01, 2095 iterations, 0.05 seconds (0.09 work units)

    Nodes    |    Current Node    |     Objective Bounds      |     Work
 Expl Unexpl |  Obj  Depth IntInf | Incumbent    BestBd   Gap | It/Node Time

     0     0    0.92308    0  309   12.00000    0.92308  92.3%     -    0s
H    0     0                       3.0000000    0.92308  69.2%     -    0s
H    0     0                       2.0000000    0.92308  53.8%     -    0s
     0     0    1.00000    0  377    2.00000    1.00000  50.0%     -    0s
     0     0    1.00000    0  252    2.00000    1.00000  50.0%     -    0s
     0     0    1.00000    0  295    2.00000    1.00000  50.0%     -    0s

Cutting planes:
  Learned: 17
  Gomory: 1
  Implied bound: 1
  Clique: 2
  Flow cover: 5
  RLT: 11
  BQP: 4
  PSD: 1

Explored 1 nodes (5287 simplex iterations) in 0.64 seconds (0.73 work units)
Thread count was 1 (of 16 available processors)

Solution count 3: 2 3 12 

Optimal solution found (tolerance 1.00e-04)
Best objective 2.000000000000e+00, best bound 2.000000000000e+00, gap 0.0000%

User-callback calls 644, time in user-callback 0.01 sec
Stat(MathOptInterface.OPTIMAL, 2.0, 2.0, 0.0, 1.14e-322, 0.027661, 0.6407928466796875, 1, Main.CFLG.EVFP, "", #undef)
